n=10;
hearts=74;
clubs=42;
spades=5;
diamonds=63;
blocked=1;
m=array2d(1..n, 1..n,[
	_,3,_,_,_,_,_,_,_,_,
	_,_,_,_,_,_,_,_,1,_,
	_,3,_,_,2,_,2,1,4,_,
	5,_,_,_,_,_,_,_,_,_,
	_,1,_,_,_,_,_,4,2,_,
	_,_,_,_,_,_,_,_,_,_,
	_,1,3,1,_,_,_,_,_,_,
	4,_,_,4,_,_,_,1,_,_,
	_,_,_,_,_,_,_,_,_,_,
	_,_,_,_,_,_,_,_,_,_
]);
